nat_inputs/AUFLIA/20170829-Rodin/smt6965910452019928937.smt2
(set-info :smt-lib-version 2.6)
(set-logic ALL)
(declare-sort Nat$ 0)
(declare-fun to_int$ (Nat$) Int)
(set-info :source |Generator: Rodin SMT Plug-in|)
(set-info :license "https://creativecommons.org/licenses/by-nc/4.0/")
(set-info :category "industrial")
(set-info :status unsat)
(declare-sort A 0)
(declare-sort PA 0)
(declare-sort PZA 0)
(declare-fun MS (Int A PZA) Bool)
(declare-fun MS0 (A PA) Bool)
(declare-fun cnc (PZA PZA PZA) Bool)
(declare-fun length (PZA Int) Bool)
(declare-fun r (A A) Bool)
(declare-fun seq (PZA) Bool)
(declare-fun a () PA)
(declare-fun p () PZA)
(assert (forall ((x457 A)) (exists ((X PA)) (and (MS0 x457 X) (forall ((y A)) (=> (MS0 y X) (= y x457)))))))
(assert (forall ((x458 Int) (x459 A)) (exists ((X0 PZA)) (and (MS x458 x459 X0) (forall ((y0 Int) (y1 A)) (=> (MS y0 y1 X0) (and (= y0 x458) (= y1 x459))))))))
(assert (! (forall ((x PZA)) (= (seq x) (exists ((s PZA)) (and (exists ((n Nat$)) (and (<= 0 (to_int$ n)) (forall ((x0 Int) (x1 A)) (=> (MS x0 x1 s) (and (<= 1 x0) (<= x0 (to_int$ n))))) (forall ((x2 Int) (x3 A) (x4 A)) (=> (and (MS x2 x3 s) (MS x2 x4 s)) (= x3 x4))) (forall ((x5 Int)) (=> (and (<= 1 x5) (<= x5 (to_int$ n))) (exists ((x6 A)) (MS x5 x6 s)))))) (forall ((x7 Int) (x8 A)) (= (MS x7 x8 x) (MS x7 x8 s))))))) :named hyp1))
(assert (! (forall ((n0 Nat$) (s0 PZA)) (=> (and (<= 0 (to_int$ n0)) (forall ((x9 Int) (x10 A)) (=> (MS x9 x10 s0) (and (<= 1 x9) (<= x9 (to_int$ n0))))) (forall ((x11 Int) (x12 A) (x13 A)) (=> (and (MS x11 x12 s0) (MS x11 x13 s0)) (= x12 x13))) (forall ((x14 Int)) (=> (and (<= 1 x14) (<= x14 (to_int$ n0))) (exists ((x15 A)) (MS x14 x15 s0))))) (length s0 (to_int$ n0)))) :named hyp2))
(assert (! (forall ((x16 A) (x17 A)) (not (and (r x16 x17) (= x16 x17)))) :named hyp3))
(assert (! (forall ((x18 A)) (=> (exists ((x19 Int)) (MS x19 x18 p)) (MS0 x18 a))) :named hyp4))
(assert (! (forall ((x20 Int)) (=> (length p x20) (< 1 x20))) :named hyp5))
(assert (! (and (forall ((x21 PZA) (x22 Nat$)) (=> (length x21 (to_int$ x22)) (and (exists ((s1 PZA)) (and (exists ((n1 Nat$)) (and (<= 0 (to_int$ n1)) (forall ((x23 Int) (x24 A)) (=> (MS x23 x24 s1) (and (<= 1 x23) (<= x23 (to_int$ n1))))) (forall ((x25 Int) (x26 A) (x27 A)) (=> (and (MS x25 x26 s1) (MS x25 x27 s1)) (= x26 x27))) (forall ((x28 Int)) (=> (and (<= 1 x28) (<= x28 (to_int$ n1))) (exists ((x29 A)) (MS x28 x29 s1)))))) (forall ((x30 Int) (x31 A)) (= (MS x30 x31 x21) (MS x30 x31 s1))))) (<= 0 (to_int$ x22))))) (forall ((x32 PZA) (x33 Int) (x34 Int)) (=> (and (length x32 x33) (length x32 x34)) (= x33 x34))) (forall ((x35 PZA)) (=> (exists ((s2 PZA)) (and (exists ((n2 Nat$)) (and (<= 0 (to_int$ n2)) (forall ((x36 Int) (x37 A)) (=> (MS x36 x37 s2) (and (<= 1 x36) (<= x36 (to_int$ n2))))) (forall ((x38 Int) (x39 A) (x40 A)) (=> (and (MS x38 x39 s2) (MS x38 x40 s2)) (= x39 x40))) (forall ((x41 Int)) (=> (and (<= 1 x41) (<= x41 (to_int$ n2))) (exists ((x42 A)) (MS x41 x42 s2)))))) (forall ((x43 Int) (x44 A)) (= (MS x43 x44 x35) (MS x43 x44 s2))))) (exists ((x45 Int)) (length x35 x45))))) :named hyp6))
(assert (! (forall ((n3 Nat$) (s3 PZA)) (=> (and (<= 0 (to_int$ n3)) (forall ((x46 Int) (x47 A)) (=> (MS x46 x47 s3) (and (<= 1 x46) (<= x46 (to_int$ n3))))) (forall ((x48 Int) (x49 A) (x50 A)) (=> (and (MS x48 x49 s3) (MS x48 x50 s3)) (= x49 x50))) (forall ((x51 Int)) (=> (and (<= 1 x51) (<= x51 (to_int$ n3))) (exists ((x52 A)) (MS x51 x52 s3))))) (exists ((n4 Nat$)) (and (<= 0 (to_int$ n4)) (forall ((x53 Int) (x54 A)) (=> (MS x53 x54 s3) (and (<= 1 x53) (<= x53 (to_int$ n4))))) (forall ((x55 Int) (x56 A) (x57 A)) (=> (and (MS x55 x56 s3) (MS x55 x57 s3)) (= x56 x57))) (forall ((x58 Int)) (=> (and (<= 1 x58) (<= x58 (to_int$ n4))) (exists ((x59 A)) (MS x58 x59 s3)))))))) :named hyp7))
(assert (! (forall ((s4 PZA)) (=> (exists ((n5 Nat$)) (and (<= 0 (to_int$ n5)) (forall ((x60 Int) (x61 A)) (=> (MS x60 x61 s4) (and (<= 1 x60) (<= x60 (to_int$ n5))))) (forall ((x62 Int) (x63 A) (x64 A)) (=> (and (MS x62 x63 s4) (MS x62 x64 s4)) (= x63 x64))) (forall ((x65 Int)) (=> (and (<= 1 x65) (<= x65 (to_int$ n5))) (exists ((x66 A)) (MS x65 x66 s4)))))) (and (forall ((x67 Int) (x68 A)) (=> (MS x67 x68 s4) (and (<= 1 x67) (forall ((x69 Int)) (=> (length s4 x69) (<= x67 x69)))))) (forall ((x70 Int) (x71 A) (x72 A)) (=> (and (MS x70 x71 s4) (MS x70 x72 s4)) (= x71 x72))) (forall ((x73 Int)) (=> (and (<= 1 x73) (forall ((x74 Int)) (=> (length s4 x74) (<= x73 x74)))) (exists ((x75 A)) (MS x73 x75 s4))))))) :named hyp8))
(assert (! (forall ((x76 PZA) (x77 PZA) (x78 PZA)) (= (cnc x76 x77 x78) (exists ((s10 PZA) (s20 PZA)) (and (exists ((n6 Nat$)) (and (<= 0 (to_int$ n6)) (forall ((x79 Int) (x80 A)) (=> (MS x79 x80 s10) (and (<= 1 x79) (<= x79 (to_int$ n6))))) (forall ((x81 Int) (x82 A) (x83 A)) (=> (and (MS x81 x82 s10) (MS x81 x83 s10)) (= x82 x83))) (forall ((x84 Int)) (=> (and (<= 1 x84) (<= x84 (to_int$ n6))) (exists ((x85 A)) (MS x84 x85 s10)))))) (exists ((n7 Nat$)) (and (<= 0 (to_int$ n7)) (forall ((x86 Int) (x87 A)) (=> (MS x86 x87 s20) (and (<= 1 x86) (<= x86 (to_int$ n7))))) (forall ((x88 Int) (x89 A) (x90 A)) (=> (and (MS x88 x89 s20) (MS x88 x90 s20)) (= x89 x90))) (forall ((x91 Int)) (=> (and (<= 1 x91) (<= x91 (to_int$ n7))) (exists ((x92 A)) (MS x91 x92 s20)))))) (forall ((x93 Int) (x94 A)) (= (MS x93 x94 x76) (MS x93 x94 s10))) (forall ((x95 Int) (x96 A)) (= (MS x95 x96 x77) (MS x95 x96 s20))) (forall ((x97 Int) (x98 A)) (= (MS x97 x98 x78) (or (exists ((i Int)) (and (<= 1 i) (forall ((x99 Int)) (=> (length s10 x99) (<= i x99))) (= x97 i) (MS i x98 s10))) (exists ((i0 Int)) (and (forall ((x100 Int)) (=> (length s10 x100) (<= (+ x100 1) i0))) (forall ((x101 Int) (x102 Int)) (=> (and (length s10 x102) (length s20 x101)) (<= i0 (+ x102 x101)))) (= x97 i0) (exists ((x103 Int)) (and (forall ((x104 Int)) (=> (length s10 x104) (= x103 (- i0 x104)))) (MS x103 x98 s20)))))))))))) :named hyp9))
(assert (! (exists ((n8 Nat$)) (and (<= 0 (to_int$ n8)) (forall ((x105 Int) (x106 A)) (=> (MS x105 x106 p) (and (<= 1 x105) (<= x105 (to_int$ n8))))) (forall ((x107 Int) (x108 A) (x109 A)) (=> (and (MS x107 x108 p) (MS x107 x109 p)) (= x108 x109))) (forall ((x110 Int)) (=> (and (<= 1 x110) (<= x110 (to_int$ n8))) (exists ((x111 A)) (MS x110 x111 p)))))) :named hyp10))
(assert (! (and (forall ((x112 PZA) (x113 PZA) (x114 PZA)) (=> (exists ((s11 PZA) (s21 PZA)) (and (exists ((n9 Nat$)) (and (<= 0 (to_int$ n9)) (forall ((x115 Int) (x116 A)) (=> (MS x115 x116 s11) (and (<= 1 x115) (<= x115 (to_int$ n9))))) (forall ((x117 Int) (x118 A) (x119 A)) (=> (and (MS x117 x118 s11) (MS x117 x119 s11)) (= x118 x119))) (forall ((x120 Int)) (=> (and (<= 1 x120) (<= x120 (to_int$ n9))) (exists ((x121 A)) (MS x120 x121 s11)))))) (exists ((n10 Nat$)) (and (<= 0 (to_int$ n10)) (forall ((x122 Int) (x123 A)) (=> (MS x122 x123 s21) (and (<= 1 x122) (<= x122 (to_int$ n10))))) (forall ((x124 Int) (x125 A) (x126 A)) (=> (and (MS x124 x125 s21) (MS x124 x126 s21)) (= x125 x126))) (forall ((x127 Int)) (=> (and (<= 1 x127) (<= x127 (to_int$ n10))) (exists ((x128 A)) (MS x127 x128 s21)))))) (forall ((x129 Int) (x130 A)) (= (MS x129 x130 x112) (MS x129 x130 s11))) (forall ((x131 Int) (x132 A)) (= (MS x131 x132 x113) (MS x131 x132 s21))) (forall ((x133 Int) (x134 A)) (= (MS x133 x134 x114) (or (exists ((i1 Int)) (and (<= 1 i1) (forall ((x135 Int)) (=> (length s11 x135) (<= i1 x135))) (= x133 i1) (MS i1 x134 s11))) (exists ((i2 Int)) (and (forall ((x136 Int)) (=> (length s11 x136) (<= (+ x136 1) i2))) (forall ((x137 Int) (x138 Int)) (=> (and (length s11 x138) (length s21 x137)) (<= i2 (+ x138 x137)))) (= x133 i2) (exists ((x139 Int)) (and (forall ((x140 Int)) (=> (length s11 x140) (= x139 (- i2 x140)))) (MS x139 x134 s21)))))))))) (and (exists ((s5 PZA)) (and (exists ((n11 Nat$)) (and (<= 0 (to_int$ n11)) (forall ((x141 Int) (x142 A)) (=> (MS x141 x142 s5) (and (<= 1 x141) (<= x141 (to_int$ n11))))) (forall ((x143 Int) (x144 A) (x145 A)) (=> (and (MS x143 x144 s5) (MS x143 x145 s5)) (= x144 x145))) (forall ((x146 Int)) (=> (and (<= 1 x146) (<= x146 (to_int$ n11))) (exists ((x147 A)) (MS x146 x147 s5)))))) (forall ((x148 Int) (x149 A)) (= (MS x148 x149 x112) (MS x148 x149 s5))))) (exists ((s6 PZA)) (and (exists ((n12 Nat$)) (and (<= 0 (to_int$ n12)) (forall ((x150 Int) (x151 A)) (=> (MS x150 x151 s6) (and (<= 1 x150) (<= x150 (to_int$ n12))))) (forall ((x152 Int) (x153 A) (x154 A)) (=> (and (MS x152 x153 s6) (MS x152 x154 s6)) (= x153 x154))) (forall ((x155 Int)) (=> (and (<= 1 x155) (<= x155 (to_int$ n12))) (exists ((x156 A)) (MS x155 x156 s6)))))) (forall ((x157 Int) (x158 A)) (= (MS x157 x158 x113) (MS x157 x158 s6))))) (exists ((s7 PZA)) (and (exists ((n13 Nat$)) (and (<= 0 (to_int$ n13)) (forall ((x159 Int) (x160 A)) (=> (MS x159 x160 s7) (and (<= 1 x159) (<= x159 (to_int$ n13))))) (forall ((x161 Int) (x162 A) (x163 A)) (=> (and (MS x161 x162 s7) (MS x161 x163 s7)) (= x162 x163))) (forall ((x164 Int)) (=> (and (<= 1 x164) (<= x164 (to_int$ n13))) (exists ((x165 A)) (MS x164 x165 s7)))))) (forall ((x166 Int) (x167 A)) (= (MS x166 x167 x114) (MS x166 x167 s7)))))))) (forall ((x168 PZA) (x169 PZA) (x170 PZA) (x171 PZA)) (=> (and (exists ((s12 PZA) (s22 PZA)) (and (exists ((n14 Nat$)) (and (<= 0 (to_int$ n14)) (forall ((x172 Int) (x173 A)) (=> (MS x172 x173 s12) (and (<= 1 x172) (<= x172 (to_int$ n14))))) (forall ((x174 Int) (x175 A) (x176 A)) (=> (and (MS x174 x175 s12) (MS x174 x176 s12)) (= x175 x176))) (forall ((x177 Int)) (=> (and (<= 1 x177) (<= x177 (to_int$ n14))) (exists ((x178 A)) (MS x177 x178 s12)))))) (exists ((n15 Nat$)) (and (<= 0 (to_int$ n15)) (forall ((x179 Int) (x180 A)) (=> (MS x179 x180 s22) (and (<= 1 x179) (<= x179 (to_int$ n15))))) (forall ((x181 Int) (x182 A) (x183 A)) (=> (and (MS x181 x182 s22) (MS x181 x183 s22)) (= x182 x183))) (forall ((x184 Int)) (=> (and (<= 1 x184) (<= x184 (to_int$ n15))) (exists ((x185 A)) (MS x184 x185 s22)))))) (forall ((x186 Int) (x187 A)) (= (MS x186 x187 x168) (MS x186 x187 s12))) (forall ((x188 Int) (x189 A)) (= (MS x188 x189 x169) (MS x188 x189 s22))) (forall ((x190 Int) (x191 A)) (= (MS x190 x191 x170) (or (exists ((i3 Int)) (and (<= 1 i3) (forall ((x192 Int)) (=> (length s12 x192) (<= i3 x192))) (= x190 i3) (MS i3 x191 s12))) (exists ((i4 Int)) (and (forall ((x193 Int)) (=> (length s12 x193) (<= (+ x193 1) i4))) (forall ((x194 Int) (x195 Int)) (=> (and (length s12 x195) (length s22 x194)) (<= i4 (+ x195 x194)))) (= x190 i4) (exists ((x196 Int)) (and (forall ((x197 Int)) (=> (length s12 x197) (= x196 (- i4 x197)))) (MS x196 x191 s22)))))))))) (exists ((s13 PZA) (s23 PZA)) (and (exists ((n16 Nat$)) (and (<= 0 (to_int$ n16)) (forall ((x198 Int) (x199 A)) (=> (MS x198 x199 s13) (and (<= 1 x198) (<= x198 (to_int$ n16))))) (forall ((x200 Int) (x201 A) (x202 A)) (=> (and (MS x200 x201 s13) (MS x200 x202 s13)) (= x201 x202))) (forall ((x203 Int)) (=> (and (<= 1 x203) (<= x203 (to_int$ n16))) (exists ((x204 A)) (MS x203 x204 s13)))))) (exists ((n17 Nat$)) (and (<= 0 (to_int$ n17)) (forall ((x205 Int) (x206 A)) (=> (MS x205 x206 s23) (and (<= 1 x205) (<= x205 (to_int$ n17))))) (forall ((x207 Int) (x208 A) (x209 A)) (=> (and (MS x207 x208 s23) (MS x207 x209 s23)) (= x208 x209))) (forall ((x210 Int)) (=> (and (<= 1 x210) (<= x210 (to_int$ n17))) (exists ((x211 A)) (MS x210 x211 s23)))))) (forall ((x212 Int) (x213 A)) (= (MS x212 x213 x168) (MS x212 x213 s13))) (forall ((x214 Int) (x215 A)) (= (MS x214 x215 x169) (MS x214 x215 s23))) (forall ((x216 Int) (x217 A)) (= (MS x216 x217 x171) (or (exists ((i5 Int)) (and (<= 1 i5) (forall ((x218 Int)) (=> (length s13 x218) (<= i5 x218))) (= x216 i5) (MS i5 x217 s13))) (exists ((i6 Int)) (and (forall ((x219 Int)) (=> (length s13 x219) (<= (+ x219 1) i6))) (forall ((x220 Int) (x221 Int)) (=> (and (length s13 x221) (length s23 x220)) (<= i6 (+ x221 x220)))) (= x216 i6) (exists ((x222 Int)) (and (forall ((x223 Int)) (=> (length s13 x223) (= x222 (- i6 x223)))) (MS x222 x217 s23))))))))))) (forall ((x224 Int) (x225 A)) (= (MS x224 x225 x170) (MS x224 x225 x171))))) (forall ((x226 PZA) (x227 PZA)) (=> (and (exists ((s8 PZA)) (and (exists ((n18 Nat$)) (and (<= 0 (to_int$ n18)) (forall ((x228 Int) (x229 A)) (=> (MS x228 x229 s8) (and (<= 1 x228) (<= x228 (to_int$ n18))))) (forall ((x230 Int) (x231 A) (x232 A)) (=> (and (MS x230 x231 s8) (MS x230 x232 s8)) (= x231 x232))) (forall ((x233 Int)) (=> (and (<= 1 x233) (<= x233 (to_int$ n18))) (exists ((x234 A)) (MS x233 x234 s8)))))) (forall ((x235 Int) (x236 A)) (= (MS x235 x236 x226) (MS x235 x236 s8))))) (exists ((s9 PZA)) (and (exists ((n19 Nat$)) (and (<= 0 (to_int$ n19)) (forall ((x237 Int) (x238 A)) (=> (MS x237 x238 s9) (and (<= 1 x237) (<= x237 (to_int$ n19))))) (forall ((x239 Int) (x240 A) (x241 A)) (=> (and (MS x239 x240 s9) (MS x239 x241 s9)) (= x240 x241))) (forall ((x242 Int)) (=> (and (<= 1 x242) (<= x242 (to_int$ n19))) (exists ((x243 A)) (MS x242 x243 s9)))))) (forall ((x244 Int) (x245 A)) (= (MS x244 x245 x227) (MS x244 x245 s9)))))) (exists ((x246 PZA) (s14 PZA) (s24 PZA)) (and (exists ((n20 Nat$)) (and (<= 0 (to_int$ n20)) (forall ((x247 Int) (x248 A)) (=> (MS x247 x248 s14) (and (<= 1 x247) (<= x247 (to_int$ n20))))) (forall ((x249 Int) (x250 A) (x251 A)) (=> (and (MS x249 x250 s14) (MS x249 x251 s14)) (= x250 x251))) (forall ((x252 Int)) (=> (and (<= 1 x252) (<= x252 (to_int$ n20))) (exists ((x253 A)) (MS x252 x253 s14)))))) (exists ((n21 Nat$)) (and (<= 0 (to_int$ n21)) (forall ((x254 Int) (x255 A)) (=> (MS x254 x255 s24) (and (<= 1 x254) (<= x254 (to_int$ n21))))) (forall ((x256 Int) (x257 A) (x258 A)) (=> (and (MS x256 x257 s24) (MS x256 x258 s24)) (= x257 x258))) (forall ((x259 Int)) (=> (and (<= 1 x259) (<= x259 (to_int$ n21))) (exists ((x260 A)) (MS x259 x260 s24)))))) (forall ((x261 Int) (x262 A)) (= (MS x261 x262 x226) (MS x261 x262 s14))) (forall ((x263 Int) (x264 A)) (= (MS x263 x264 x227) (MS x263 x264 s24))) (forall ((x265 Int) (x266 A)) (= (MS x265 x266 x246) (or (exists ((i7 Int)) (and (<= 1 i7) (forall ((x267 Int)) (=> (length s14 x267) (<= i7 x267))) (= x265 i7) (MS i7 x266 s14))) (exists ((i8 Int)) (and (forall ((x268 Int)) (=> (length s14 x268) (<= (+ x268 1) i8))) (forall ((x269 Int) (x270 Int)) (=> (and (length s14 x270) (length s24 x269)) (<= i8 (+ x270 x269)))) (= x265 i8) (exists ((x271 Int)) (and (forall ((x272 Int)) (=> (length s14 x272) (= x271 (- i8 x272)))) (MS x271 x266 s24))))))))))))) :named hyp11))
(assert (! (forall ((s15 PZA) (s25 PZA)) (=> (and (exists ((n22 Nat$)) (and (<= 0 (to_int$ n22)) (forall ((x273 Int) (x274 A)) (=> (MS x273 x274 s15) (and (<= 1 x273) (<= x273 (to_int$ n22))))) (forall ((x275 Int) (x276 A) (x277 A)) (=> (and (MS x275 x276 s15) (MS x275 x277 s15)) (= x276 x277))) (forall ((x278 Int)) (=> (and (<= 1 x278) (<= x278 (to_int$ n22))) (exists ((x279 A)) (MS x278 x279 s15)))))) (exists ((n23 Nat$)) (and (<= 0 (to_int$ n23)) (forall ((x280 Int) (x281 A)) (=> (MS x280 x281 s25) (and (<= 1 x280) (<= x280 (to_int$ n23))))) (forall ((x282 Int) (x283 A) (x284 A)) (=> (and (MS x282 x283 s25) (MS x282 x284 s25)) (= x283 x284))) (forall ((x285 Int)) (=> (and (<= 1 x285) (<= x285 (to_int$ n23))) (exists ((x286 A)) (MS x285 x286 s25))))))) (exists ((x287 PZA) (x288 Int)) (and (forall ((x289 Int) (x290 A)) (= (MS x289 x290 x287) (or (exists ((i9 Int)) (and (<= 1 i9) (forall ((x291 Int)) (=> (length s15 x291) (<= i9 x291))) (= x289 i9) (MS i9 x290 s15))) (exists ((i10 Int)) (and (forall ((x292 Int)) (=> (length s15 x292) (<= (+ x292 1) i10))) (forall ((x293 Int) (x294 Int)) (=> (and (length s15 x294) (length s25 x293)) (<= i10 (+ x294 x293)))) (= x289 i10) (exists ((x295 Int)) (and (forall ((x296 Int)) (=> (length s15 x296) (= x295 (- i10 x296)))) (MS x295 x290 s25)))))))) (forall ((x297 Int) (x298 Int)) (=> (and (length s15 x298) (length s25 x297)) (= x288 (+ x298 x297)))) (length x287 x288))))) :named hyp12))
(assert (! (forall ((s16 PZA) (s26 PZA)) (=> (and (exists ((n24 Nat$)) (and (<= 0 (to_int$ n24)) (forall ((x299 Int) (x300 A)) (=> (MS x299 x300 s16) (and (<= 1 x299) (<= x299 (to_int$ n24))))) (forall ((x301 Int) (x302 A) (x303 A)) (=> (and (MS x301 x302 s16) (MS x301 x303 s16)) (= x302 x303))) (forall ((x304 Int)) (=> (and (<= 1 x304) (<= x304 (to_int$ n24))) (exists ((x305 A)) (MS x304 x305 s16)))))) (exists ((n25 Nat$)) (and (<= 0 (to_int$ n25)) (forall ((x306 Int) (x307 A)) (=> (MS x306 x307 s26) (and (<= 1 x306) (<= x306 (to_int$ n25))))) (forall ((x308 Int) (x309 A) (x310 A)) (=> (and (MS x308 x309 s26) (MS x308 x310 s26)) (= x309 x310))) (forall ((x311 Int)) (=> (and (<= 1 x311) (<= x311 (to_int$ n25))) (exists ((x312 A)) (MS x311 x312 s26))))))) (forall ((x313 Int)) (= (or (exists ((x314 A)) (exists ((i11 Int)) (and (<= 1 i11) (forall ((x315 Int)) (=> (length s16 x315) (<= i11 x315))) (= x313 i11) (MS i11 x314 s16)))) (exists ((x316 A)) (exists ((i12 Int)) (and (forall ((x317 Int)) (=> (length s16 x317) (<= (+ x317 1) i12))) (forall ((x318 Int) (x319 Int)) (=> (and (length s16 x319) (length s26 x318)) (<= i12 (+ x319 x318)))) (= x313 i12) (exists ((x320 Int)) (and (forall ((x321 Int)) (=> (length s16 x321) (= x320 (- i12 x321)))) (MS x320 x316 s26))))))) (and (<= 1 x313) (forall ((x322 Int) (x323 Int)) (=> (and (length s16 x323) (length s26 x322)) (<= x313 (+ x323 x322))))))))) :named hyp13))
(assert (! (forall ((s17 PZA) (s27 PZA)) (=> (and (exists ((n26 Nat$)) (and (<= 0 (to_int$ n26)) (forall ((x324 Int) (x325 A)) (=> (MS x324 x325 s17) (and (<= 1 x324) (<= x324 (to_int$ n26))))) (forall ((x326 Int) (x327 A) (x328 A)) (=> (and (MS x326 x327 s17) (MS x326 x328 s17)) (= x327 x328))) (forall ((x329 Int)) (=> (and (<= 1 x329) (<= x329 (to_int$ n26))) (exists ((x330 A)) (MS x329 x330 s17)))))) (exists ((n27 Nat$)) (and (<= 0 (to_int$ n27)) (forall ((x331 Int) (x332 A)) (=> (MS x331 x332 s27) (and (<= 1 x331) (<= x331 (to_int$ n27))))) (forall ((x333 Int) (x334 A) (x335 A)) (=> (and (MS x333 x334 s27) (MS x333 x335 s27)) (= x334 x335))) (forall ((x336 Int)) (=> (and (<= 1 x336) (<= x336 (to_int$ n27))) (exists ((x337 A)) (MS x336 x337 s27))))))) (forall ((x338 A)) (= (or (exists ((x339 Int)) (exists ((i13 Int)) (and (<= 1 i13) (forall ((x340 Int)) (=> (length s17 x340) (<= i13 x340))) (= x339 i13) (MS i13 x338 s17)))) (exists ((x341 Int)) (exists ((i14 Int)) (and (forall ((x342 Int)) (=> (length s17 x342) (<= (+ x342 1) i14))) (forall ((x343 Int) (x344 Int)) (=> (and (length s17 x344) (length s27 x343)) (<= i14 (+ x344 x343)))) (= x341 i14) (exists ((x345 Int)) (and (forall ((x346 Int)) (=> (length s17 x346) (= x345 (- i14 x346)))) (MS x345 x338 s27))))))) (or (exists ((x347 Int)) (MS x347 x338 s17)) (exists ((x348 Int)) (MS x348 x338 s27))))))) :named hyp14))
(assert (! (forall ((s18 PZA) (s28 PZA) (i15 Int)) (=> (and (exists ((n28 Nat$)) (and (<= 0 (to_int$ n28)) (forall ((x349 Int) (x350 A)) (=> (MS x349 x350 s18) (and (<= 1 x349) (<= x349 (to_int$ n28))))) (forall ((x351 Int) (x352 A) (x353 A)) (=> (and (MS x351 x352 s18) (MS x351 x353 s18)) (= x352 x353))) (forall ((x354 Int)) (=> (and (<= 1 x354) (<= x354 (to_int$ n28))) (exists ((x355 A)) (MS x354 x355 s18)))))) (exists ((n29 Nat$)) (and (<= 0 (to_int$ n29)) (forall ((x356 Int) (x357 A)) (=> (MS x356 x357 s28) (and (<= 1 x356) (<= x356 (to_int$ n29))))) (forall ((x358 Int) (x359 A) (x360 A)) (=> (and (MS x358 x359 s28) (MS x358 x360 s28)) (= x359 x360))) (forall ((x361 Int)) (=> (and (<= 1 x361) (<= x361 (to_int$ n29))) (exists ((x362 A)) (MS x361 x362 s28)))))) (<= 1 i15) (forall ((x363 Int)) (=> (length s18 x363) (<= i15 x363)))) (or (exists ((i16 Int)) (and (<= 1 i16) (forall ((x364 Int)) (=> (length s18 x364) (<= i16 x364))) (= i15 i16) (exists ((x365 A)) (and (MS i16 x365 s18) (MS i15 x365 s18))))) (exists ((i17 Int)) (and (forall ((x366 Int)) (=> (length s18 x366) (<= (+ x366 1) i17))) (forall ((x367 Int) (x368 Int)) (=> (and (length s18 x368) (length s28 x367)) (<= i17 (+ x368 x367)))) (= i15 i17) (exists ((x369 A)) (and (exists ((x370 Int)) (and (forall ((x371 Int)) (=> (length s18 x371) (= x370 (- i17 x371)))) (MS x370 x369 s28))) (MS i15 x369 s18)))))))) :named hyp15))
(assert (! (forall ((s19 PZA) (s29 PZA) (i18 Int)) (=> (and (exists ((n30 Nat$)) (and (<= 0 (to_int$ n30)) (forall ((x372 Int) (x373 A)) (=> (MS x372 x373 s19) (and (<= 1 x372) (<= x372 (to_int$ n30))))) (forall ((x374 Int) (x375 A) (x376 A)) (=> (and (MS x374 x375 s19) (MS x374 x376 s19)) (= x375 x376))) (forall ((x377 Int)) (=> (and (<= 1 x377) (<= x377 (to_int$ n30))) (exists ((x378 A)) (MS x377 x378 s19)))))) (exists ((n31 Nat$)) (and (<= 0 (to_int$ n31)) (forall ((x379 Int) (x380 A)) (=> (MS x379 x380 s29) (and (<= 1 x379) (<= x379 (to_int$ n31))))) (forall ((x381 Int) (x382 A) (x383 A)) (=> (and (MS x381 x382 s29) (MS x381 x383 s29)) (= x382 x383))) (forall ((x384 Int)) (=> (and (<= 1 x384) (<= x384 (to_int$ n31))) (exists ((x385 A)) (MS x384 x385 s29)))))) (forall ((x386 Int)) (=> (length s19 x386) (<= (+ x386 1) i18))) (forall ((x387 Int) (x388 Int)) (=> (and (length s19 x388) (length s29 x387)) (<= i18 (+ x388 x387))))) (or (exists ((i19 Int)) (and (<= 1 i19) (forall ((x389 Int)) (=> (length s19 x389) (<= i19 x389))) (= i18 i19) (exists ((x390 Int) (x391 A)) (and (forall ((x392 Int)) (=> (length s19 x392) (= x390 (- i18 x392)))) (MS i19 x391 s19) (MS x390 x391 s29))))) (exists ((i20 Int)) (and (forall ((x393 Int)) (=> (length s19 x393) (<= (+ x393 1) i20))) (forall ((x394 Int) (x395 Int)) (=> (and (length s19 x395) (length s29 x394)) (<= i20 (+ x395 x394)))) (= i18 i20) (exists ((x396 Int) (x397 A)) (and (forall ((x398 Int)) (=> (length s19 x398) (= x396 (- i18 x398)))) (exists ((x399 Int)) (and (forall ((x400 Int)) (=> (length s19 x400) (= x399 (- i20 x400)))) (MS x399 x397 s29))) (MS x396 x397 s29)))))))) :named hyp16))
(assert (! (forall ((s110 PZA) (s210 PZA) (b PA)) (=> (and (exists ((n32 Nat$)) (and (<= 0 (to_int$ n32)) (forall ((x401 Int) (x402 A)) (=> (MS x401 x402 s110) (and (<= 1 x401) (<= x401 (to_int$ n32))))) (forall ((x403 Int) (x404 A) (x405 A)) (=> (and (MS x403 x404 s110) (MS x403 x405 s110)) (= x404 x405))) (forall ((x406 Int)) (=> (and (<= 1 x406) (<= x406 (to_int$ n32))) (exists ((x407 A)) (MS x406 x407 s110)))))) (exists ((n33 Nat$)) (and (<= 0 (to_int$ n33)) (forall ((x408 Int) (x409 A)) (=> (MS x408 x409 s210) (and (<= 1 x408) (<= x408 (to_int$ n33))))) (forall ((x410 Int) (x411 A) (x412 A)) (=> (and (MS x410 x411 s210) (MS x410 x412 s210)) (= x411 x412))) (forall ((x413 Int)) (=> (and (<= 1 x413) (<= x413 (to_int$ n33))) (exists ((x414 A)) (MS x413 x414 s210)))))) (forall ((x415 A)) (=> (exists ((x416 Int)) (MS x416 x415 s110)) (MS0 x415 b))) (forall ((x417 A)) (=> (exists ((x418 Int)) (MS x418 x417 s210)) (MS0 x417 b)))) (and (forall ((x419 Int) (x420 A)) (=> (or (exists ((i21 Int)) (and (<= 1 i21) (forall ((x421 Int)) (=> (length s110 x421) (<= i21 x421))) (= x419 i21) (MS i21 x420 s110))) (exists ((i22 Int)) (and (forall ((x422 Int)) (=> (length s110 x422) (<= (+ x422 1) i22))) (forall ((x423 Int) (x424 Int)) (=> (and (length s110 x424) (length s210 x423)) (<= i22 (+ x424 x423)))) (= x419 i22) (exists ((x425 Int)) (and (forall ((x426 Int)) (=> (length s110 x426) (= x425 (- i22 x426)))) (MS x425 x420 s210)))))) (and (<= 1 x419) (forall ((x427 Int) (x428 Int)) (=> (and (length s110 x428) (length s210 x427)) (<= x419 (+ x428 x427)))) (MS0 x420 b)))) (forall ((x429 Int) (x430 A) (x431 A)) (=> (and (or (exists ((i23 Int)) (and (<= 1 i23) (forall ((x432 Int)) (=> (length s110 x432) (<= i23 x432))) (= x429 i23) (MS i23 x430 s110))) (exists ((i24 Int)) (and (forall ((x433 Int)) (=> (length s110 x433) (<= (+ x433 1) i24))) (forall ((x434 Int) (x435 Int)) (=> (and (length s110 x435) (length s210 x434)) (<= i24 (+ x435 x434)))) (= x429 i24) (exists ((x436 Int)) (and (forall ((x437 Int)) (=> (length s110 x437) (= x436 (- i24 x437)))) (MS x436 x430 s210)))))) (or (exists ((i25 Int)) (and (<= 1 i25) (forall ((x438 Int)) (=> (length s110 x438) (<= i25 x438))) (= x429 i25) (MS i25 x431 s110))) (exists ((i26 Int)) (and (forall ((x439 Int)) (=> (length s110 x439) (<= (+ x439 1) i26))) (forall ((x440 Int) (x441 Int)) (=> (and (length s110 x441) (length s210 x440)) (<= i26 (+ x441 x440)))) (= x429 i26) (exists ((x442 Int)) (and (forall ((x443 Int)) (=> (length s110 x443) (= x442 (- i26 x443)))) (MS x442 x431 s210))))))) (= x430 x431))) (forall ((x444 Int)) (=> (and (<= 1 x444) (forall ((x445 Int) (x446 Int)) (=> (and (length s110 x446) (length s210 x445)) (<= x444 (+ x446 x445))))) (or (exists ((x447 A)) (exists ((i27 Int)) (and (<= 1 i27) (forall ((x448 Int)) (=> (length s110 x448) (<= i27 x448))) (= x444 i27) (MS i27 x447 s110)))) (exists ((x449 A)) (exists ((i28 Int)) (and (forall ((x450 Int)) (=> (length s110 x450) (<= (+ x450 1) i28))) (forall ((x451 Int) (x452 Int)) (=> (and (length s110 x452) (length s210 x451)) (<= i28 (+ x452 x451)))) (= x444 i28) (exists ((x453 Int)) (and (forall ((x454 Int)) (=> (length s110 x454) (= x453 (- i28 x454)))) (MS x453 x449 s210)))))))))))) :named hyp17))
(assert (! (not (exists ((x455 A) (x456 Int)) (and (= x456 1) (MS x456 x455 p)))) :named goal))
(check-sat)
(exit)
